NAME: berlin52
TYPE: TSP
COMMENT: 52 locations in Berlin (Groetschel)
DIMENSION: 52
EDGE_WEIGHT_TYPE: EUC_2D
NODE_COORD_SECTION
1 170.0 85.0
2 166.0 88.0
3 133.0 73.0
4 140.0 70.0
5 142.0 55.0
6 126.0 53.0
EOF

